qbf_easy_train/easy_2933_SAT.qdimacs
p cnf 27 71
a 18 21 23 0
e 1 2 3 4 5 6 7 8 9 10 11 12 13 14 15 16 17 19 20 22 24 25 26 27 0
-4 -2 0
-4 3 0
2 -3 4 0
5 1 0
5 4 0
-1 -4 -5 0
6 7 -8 0
-6 -7 -8 0
6 -7 8 0
-6 7 8 0
-9 8 0
-9 7 0
-8 -7 9 0
4 -9 -10 0
-4 9 -10 0
4 9 10 0
-4 -9 10 0
11 -9 -12 0
-11 9 -12 0
11 9 12 0
-11 -9 12 0
-13 10 0
-13 -12 0
-10 12 13 0
5 13 -14 0
-5 -13 -14 0
5 -13 14 0
-5 13 14 0
-15 -9 0
-15 -1 0
9 1 15 0
16 -15 0
16 -7 0
15 7 -16 0
-17 -7 0
-17 1 0
7 -1 17 0
-18 16 0
-18 -17 0
-16 17 18 0
19 3 0
19 9 0
-3 -9 -19 0
7 2 -21 0
-7 -2 -21 0
7 -2 21 0
-7 2 21 0
20 -21 -22 0
-20 21 -22 0
20 21 22 0
-20 -21 22 0
22 23 -24 0
-22 -23 -24 0
22 -23 24 0
-22 23 24 0
25 19 0
25 24 0
-19 -24 -25 0
-26 18 0
-26 25 0
-18 -25 26 0
-27 -14 0
-27 -26 0
14 26 27 0
-1 27 21 0
20 -7 -10 -26 -16 8 0
11 -27 23 -26 4 -21 7 0
-16 -1 -3 18 0
-12 5 23 6 22 -25 -3 -18 0
-14 25 9 19 0
27 0
