sat_easy_train/easy_2933_SAT.dimacs
p cnf 111 358
2 -1 0
2 1 0
4 -2 0
4 -3 0
2 3 -4 0
7 5 0
7 -6 0
-5 6 -7 0
-10 8 0
-10 9 0
-8 -9 10 0
-11 -7 0
-11 10 0
7 -10 11 0
-12 -4 0
-12 -11 0
4 11 12 0
-2 -1 -13 0
2 1 -13 0
-2 1 13 0
2 -1 13 0
-14 12 0
-14 13 0
-12 -13 14 0
17 15 0
17 16 0
-15 -16 -17 0
-17 5 -18 0
17 -5 -18 0
-17 -5 18 0
17 5 18 0
20 18 0
20 -19 0
-18 19 -20 0
-1 -21 -22 0
1 21 -22 0
-1 21 22 0
1 -21 22 0
23 20 0
23 22 0
-20 -22 -23 0
19 -7 -24 0
-19 7 -24 0
19 7 24 0
-19 -7 24 0
26 -18 0
26 25 0
18 -25 -26 0
-27 -9 0
-27 -9 0
9 27 0
28 26 0
28 27 0
-26 -27 -28 0
29 -24 0
29 28 0
24 -28 -29 0
30 23 0
30 -29 0
-23 29 -30 0
-31 14 0
-31 30 0
-14 -30 31 0
32 11 0
32 -26 0
-11 26 -32 0
33 2 0
33 -6 0
-2 6 -33 0
-35 3 0
-35 -34 0
-3 34 35 0
-36 35 0
-36 -21 0
-35 21 36 0
-37 3 0
-37 36 0
-3 -36 37 0
-37 -25 -38 0
37 25 -38 0
-37 25 38 0
37 -25 38 0
-39 -33 0
-39 -38 0
33 38 39 0
-41 40 0
-41 -16 0
-40 16 41 0
-42 41 0
-42 -26 0
-41 26 42 0
-43 36 0
-43 37 0
-36 -37 43 0
-44 -42 0
-44 -43 0
42 43 44 0
-39 44 -45 0
39 -44 -45 0
-39 -44 45 0
39 44 45 0
47 -41 0
47 19 0
41 -19 -47 0
-48 47 0
-48 -33 0
-47 33 48 0
-49 -22 0
-49 48 0
22 -48 49 0
-46 49 -50 0
46 -49 -50 0
-46 -49 50 0
46 49 50 0
51 45 0
51 50 0
-45 -50 -51 0
-52 -38 0
-52 -38 0
38 52 0
53 1 0
53 47 0
-1 -47 -53 0
-52 -53 -54 0
52 53 -54 0
-52 53 54 0
52 -53 54 0
-55 -37 0
-55 37 0
56 -5 0
56 -55 0
5 55 -56 0
54 -56 -57 0
-54 56 -57 0
54 56 57 0
-54 -56 57 0
-40 -5 -58 0
40 5 -58 0
-40 5 58 0
40 -5 58 0
-60 18 0
-60 -59 0
-18 59 60 0
61 47 0
61 -34 0
-47 34 -61 0
62 61 0
62 -34 0
-61 34 -62 0
-62 49 -63 0
62 -49 -63 0
-62 -49 63 0
62 49 63 0
64 -4 0
64 -63 0
4 63 -64 0
-65 60 0
-65 64 0
-60 -64 65 0
-35 6 -66 0
35 -6 -66 0
-35 -6 66 0
35 6 66 0
41 66 -67 0
-41 -66 -67 0
41 -66 67 0
-41 66 67 0
-68 -65 0
-68 67 0
65 -67 68 0
-35 66 -69 0
35 -66 -69 0
-35 -66 69 0
35 66 69 0
70 69 0
70 -5 0
-69 5 -70 0
71 68 0
71 -70 0
-68 70 -71 0
72 58 0
72 71 0
-58 -71 -72 0
73 -57 0
73 -72 0
57 72 -73 0
-74 -69 0
-74 1 0
69 -1 74 0
-75 73 0
-75 -74 0
-73 74 75 0
-51 75 -76 0
51 -75 -76 0
-51 -75 76 0
51 75 76 0
-32 76 -77 0
32 -76 -77 0
-32 -76 77 0
32 76 77 0
-31 -77 -78 0
31 77 -78 0
-31 77 78 0
31 -77 78 0
79 41 0
79 -10 0
-41 10 -79 0
-80 16 0
-80 62 0
-16 -62 80 0
80 41 -81 0
-80 -41 -81 0
80 -41 81 0
-80 41 81 0
82 2 0
82 81 0
-2 -81 -82 0
-83 -79 0
-83 82 0
79 -82 83 0
84 35 0
84 19 0
-35 -19 -84 0
-84 69 -85 0
84 -69 -85 0
-84 -69 85 0
84 69 85 0
-86 85 0
-86 18 0
-85 -18 86 0
-88 80 0
-88 -87 0
-80 87 88 0
-89 -86 0
-89 88 0
86 -88 89 0
83 89 -90 0
-83 -89 -90 0
83 -89 90 0
-83 89 90 0
27 -19 -91 0
-27 19 -91 0
27 19 91 0
-27 -19 91 0
-92 -2 0
-92 -22 0
2 22 92 0
-37 92 -93 0
37 -92 -93 0
-37 -92 93 0
37 92 93 0
94 16 0
94 21 0
-16 -21 -94 0
-95 94 0
-95 -66 0
-94 66 95 0
-96 -93 0
-96 95 0
93 -95 96 0
-27 6 -97 0
27 -6 -97 0
-27 -6 97 0
27 6 97 0
98 96 0
98 97 0
-96 -97 -98 0
-99 -91 0
-99 98 0
91 -98 99 0
90 99 -100 0
-90 -99 -100 0
90 -99 100 0
-90 99 100 0
41 -62 -101 0
-41 62 -101 0
41 62 101 0
-41 -62 101 0
102 25 0
102 -59 0
-25 59 -102 0
103 -102 0
103 2 0
102 -2 -103 0
-104 103 0
-104 26 0
-103 -26 104 0
-101 104 -105 0
101 -104 -105 0
-101 -104 105 0
101 104 105 0
106 -16 0
106 9 0
16 -9 -106 0
-107 -9 0
-107 18 0
9 -18 107 0
108 106 0
108 -107 0
-106 107 -108 0
-105 108 -109 0
105 -108 -109 0
-105 -108 109 0
105 108 109 0
110 100 0
110 109 0
-100 -109 -110 0
111 78 0
111 110 0
-78 -110 -111 0
37 -94 -103 91 0
43 -72 8 -108 60 88 0
80 23 -97 -13 102 104 0
104 -63 -100 -39 9 0
18 -26 -34 0
-25 109 -74 -6 0
107 -78 0
-96 -56 -5 0
-20 -75 -39 31 14 -52 0
76 57 -108 -64 -96 -70 0
78 48 87 -99 -58 -9 0
-34 -59 0
74 -10 -99 0
102 86 0
-40 21 91 2 -32 0
15 -11 -7 -8 0
-107 -89 0
67 -45 -91 -59 -39 0
-20 -58 0
-17 35 -50 0
-20 37 96 -26 -1 23 0
34 28 -42 55 83 0
-31 14 40 -42 0
16 27 57 0
12 -18 30 83 17 29 0
-2 -23 -102 0
65 -12 0
-73 -19 -91 82 105 -83 0
-111 88 -89 0
67 -61 -29 0
-17 27 108 -35 77 1 0
-79 14 19 0
-92 69 61 83 62 -10 0
86 -63 49 -91 107 0
94 51 -103 -55 0
-97 -77 99 -80 111 29 0
79 2 -89 -17 0
-88 69 -57 108 0
91 30 77 19 -37 0
-91 -90 -19 -12 50 67 0
-1 28 -67 38 -29 -74 0
19 47 0
100 -18 -83 -110 0
-34 -33 66 -65 2 -79 0
43 98 -13 108 -75 51 0
42 35 -106 -19 0
-14 44 104 -72 0
111 0
